
        $ From http://www.csplib.org/Problems/prob009/data/helmut.pdf
        $ Problem number 154
        $ Sequence length : 25
        language ESSENCE' 1.0
        letting sizemaster be 524
        letting sizes be sequence(9,12,20,21,33,35,37,39,54,55,61,62,87,90,98,101,125,132,135,141,145,159,163,164,220)
        